50358.94,54.9,66.57
43302.84,63.84,77.42
51407.22,53.78,65.22
49054.47,56.36,68.34
53268.87,51.9,62.94
47585.53,58.1,70.45
42582.07,64.92,78.73
53174.97,51.99,63.05
42469.57,65.1,78.94
53535.85,51.64,62.62
41373.99,66.82,81.03
45368.5,60.94,73.9
48859.42,56.58,68.62
52886.58,52.27,63.39
44076.59,62.72,76.06
45276.72,61.06,74.05
49339.79,56.03,67.95
41864.94,66.04,80.08
41455.95,66.69,80.87
44178.8,62.58,75.89
